c Sudoku solution
p cnf 729 0
212 0
223 0
255 0
289 0
349 0
368 0
376 0
393 0
424 0
438 0
456 0
553 0
571 0
585 0
664 0
594 0
548 0
679 0
722 0
731 0
841 0
859 0
877 0
928 0
758 0
118 0
278 0
935 0
826 0
966 0
981 0
334 0
244 0
146 0
163 0
236 0
833 0
814 0
516 0
954 0
492 0
473 0
487 0
613 0
445 0
625 0
411 0
651 0
469 0
315 0
261 0
297 0
191 0
175 0
184 0
382 0
321 0
152 0
357 0
972 0
888 0
999 0
895 0
796 0
765 0
862 0
719 0
917 0
747 0
943 0
642 0
567 0
532 0
637 0
529 0
127 0
139 0
774 0
783 0
686 0
698 0
